ACTORES = {Actor0, Actor1, Actor2};
Escenas =[|0,1,0,0,0,19
		  |0,0,1,1,1,6
		  |0,1,0,0,1,20
		  |];
Duracion=[3, 3, 1, 4, 4];
Disponibilidad = [|Actor0, 48
				  |Actor1, 17
				  |Actor2, 40|];
Evitar = [|Actor0, Actor1|];
